NAME        lol
OBJSENSE
  MAX
ROWS
 N  obj
 E  c1
 G  c2
 L  c3
COLUMNS
    x1        obj       3
    x1        c1        3
    x1        c2        2
    x2        obj       1
    x2        c1        1
    x2        c2        1
    x2        c3        2
    x3        obj       5
    x3        c1        2
    x3        c2        3
    x4        obj       1
    x4        c2        1
    x4        c3        3
RHS
    RHS_V     c1        30
    RHS_V     c2        15
    RHS_V     c3        25
BOUNDS
 UP BOUND     x2        10
ENDATA
